nK = 916;
nT = 6;
nI = 14;
L = 35;
TT = 249;
np = 1;
nc = 3;
b = [52, 31, 24, 61, 38, 22, 56, 60, 43, 46, 65, 35, 29, 50];
d = [94, 62, 54, 124, 119, 36, 138, 99, 139, 124, 132, 132, 82, 139];
m = [1, 1.3, 1.9, 2.2, 2.4, 2.3, 1.9, 1.8, 1.4, 1.8, 1.4, 2.2, 1.3, 1];
pt = [0.27, 0.27, 0.34, 0.26, 0.26, 0.26];
st = [12.96, 11.88, 14.28, 13.26, 15.34, 10.92];
arc = {<1, 0, 1, 1, 0, 0, 0, [1, 1, 1, 1, 1, 1]>, <2, 1, 2, 1, 0, 0, 0, [1, 1, 1, 1, 1, 1]>, <3, 2, 3, 1, 0, 0, 0, [1, 1, 1, 1, 1, 1]>, <4, 3, 4, 1, 0, 0, 0, [1, 1, 1, 1, 1, 1]>, <5, 4, 5, 1, 0, 0, 0, [1, 1, 1, 1, 1, 1]>, <6, 5, 6, 1, 0, 0, 0, [1, 1, 1, 1, 1, 1]>, <7, 6, 7, 1, 0, 0, 0, [1, 1, 1, 1, 1, 1]>, <8, 7, 8, 1, 0, 0, 0, [1, 1, 1, 1, 1, 1]>, <9, 8, 9, 1, 0, 0, 0, [1, 1, 1, 1, 1, 1]>, <10, 9, 10, 1, 0, 0, 0, [1, 1, 1, 1, 1, 1]>, <11, 10, 11, 1, 0, 0, 0, [1, 1, 1, 1, 1, 1]>, <12, 11, 12, 1, 0, 0, 0, [1, 1, 1, 1, 1, 1]>, <13, 12, 13, 1, 0, 0, 0, [1, 1, 1, 1, 1, 1]>, <14, 13, 14, 1, 0, 0, 0, [1, 1, 1, 1, 1, 1]>, <15, 14, 15, 1, 0, 0, 0, [1, 1, 1, 1, 1, 1]>, <16, 15, 16, 1, 0, 0, 0, [1, 1, 1, 1, 1, 1]>, <17, 16, 17, 1, 0, 0, 0, [1, 1, 1, 1, 1, 1]>, <18, 17, 18, 1, 0, 0, 0, [1, 1, 1, 1, 1, 1]>, <19, 18, 19, 1, 0, 0, 0, [1, 1, 1, 1, 1, 1]>, <20, 19, 20, 1, 0, 0, 0, [1, 1, 1, 1, 1, 1]>, <21, 20, 21, 1, 0, 0, 0, [1, 1, 1, 1, 1, 1]>, <22, 21, 22, 1, 0, 0, 0, [1, 1, 1, 1, 1, 1]>, <23, 22, 23, 1, 0, 0, 0, [1, 1, 1, 1, 1, 1]>, <24, 23, 24, 1, 0, 0, 0, [1, 1, 1, 1, 1, 1]>, <25, 24, 25, 1, 0, 0, 0, [1, 1, 1, 1, 1, 1]>, <26, 25, 26, 1, 0, 0, 0, [1, 1, 1, 1, 1, 1]>, <27, 26, 27, 1, 0, 0, 0, [1, 1, 1, 1, 1, 1]>, <28, 27, 28, 1, 0, 0, 0, [1, 1, 1, 1, 1, 1]>, <29, 28, 29, 1, 0, 0, 0, [1, 1, 1, 1, 1, 1]>, <30, 29, 30, 1, 0, 0, 0, [1, 1, 1, 1, 1, 1]>, <31, 30, 31, 1, 0, 0, 0, [1, 1, 1, 1, 1, 1]>, <32, 31, 32, 1, 0, 0, 0, [1, 1, 1, 1, 1, 1]>, <33, 32, 33, 1, 0, 0, 0, [1, 1, 1, 1, 1, 1]>, <34, 33, 34, 1, 0, 0, 0, [1, 1, 1, 1, 1, 1]>, <35, 34, 35, 1, 0, 0, 0, [1, 1, 1, 1, 1, 1]>, <36, 5, 16, 11, 1, 0, 1, [0, 0, 1, 1, 1, 1]>, <37, 6, 17, 11, 1, 0, 1, [0, 0, 1, 1, 1, 1]>, <38, 14, 25, 11, 1, 0, 1, [0, 0, 1, 1, 1, 1]>, <39, 15, 26, 11, 1, 0, 1, [0, 0, 1, 1, 1, 1]>, <40, 20, 31, 11, 1, 0, 1, [0, 0, 1, 1, 1, 1]>, <41, 21, 32, 11, 1, 0, 1, [0, 0, 1, 1, 1, 1]>, <42, 22, 33, 11, 1, 0, 1, [0, 0, 1, 1, 1, 1]>, <43, 23, 34, 11, 1, 0, 1, [0, 0, 1, 1, 1, 1]>, <44, 24, 35, 11, 1, 0, 1, [0, 0, 1, 1, 1, 1]>, <45, 5, 16, 11, 2, 0, 0, [1, 1, 1, 1, 0, 0]>, <46, 6, 17, 11, 2, 0, 0, [1, 1, 1, 1, 0, 0]>, <47, 14, 25, 11, 2, 0, 0, [1, 1, 1, 1, 0, 0]>, <48, 15, 26, 11, 2, 0, 0, [1, 1, 1, 1, 0, 0]>, <49, 20, 31, 11, 2, 0, 0, [1, 1, 1, 1, 0, 0]>, <50, 21, 32, 11, 2, 0, 0, [1, 1, 1, 1, 0, 0]>, <51, 22, 33, 11, 2, 0, 0, [1, 1, 1, 1, 0, 0]>, <52, 23, 34, 11, 2, 0, 0, [1, 1, 1, 1, 0, 0]>, <53, 24, 35, 11, 2, 0, 0, [1, 1, 1, 1, 0, 0]>, <54, 5, 15, 10, 3, 0, 0, [1, 1, 0, 0, 1, 1]>, <55, 6, 16, 10, 3, 0, 0, [1, 1, 0, 0, 1, 1]>, <56, 14, 24, 10, 3, 0, 0, [1, 1, 0, 0, 1, 1]>, <57, 15, 25, 10, 3, 0, 0, [1, 1, 0, 0, 1, 1]>, <58, 21, 31, 10, 3, 0, 0, [1, 1, 0, 0, 1, 1]>, <59, 22, 32, 10, 3, 0, 0, [1, 1, 0, 0, 1, 1]>, <60, 23, 33, 10, 3, 0, 0, [1, 1, 0, 0, 1, 1]>, <61, 24, 34, 10, 3, 0, 0, [1, 1, 0, 0, 1, 1]>, <62, 4, 17, 13, 4, 0, 1, [0, 1, 1, 1, 1, 0]>, <63, 5, 18, 13, 4, 0, 1, [0, 1, 1, 1, 1, 0]>, <64, 6, 19, 13, 4, 0, 1, [0, 1, 1, 1, 1, 0]>, <65, 13, 26, 13, 4, 0, 1, [0, 1, 1, 1, 1, 0]>, <66, 14, 27, 13, 4, 0, 1, [0, 1, 1, 1, 1, 0]>, <67, 15, 28, 13, 4, 0, 1, [0, 1, 1, 1, 1, 0]>, <68, 18, 31, 13, 4, 0, 1, [0, 1, 1, 1, 1, 0]>, <69, 19, 32, 13, 4, 0, 1, [0, 1, 1, 1, 1, 0]>, <70, 20, 33, 13, 4, 0, 1, [0, 1, 1, 1, 1, 0]>, <71, 21, 34, 13, 4, 0, 1, [0, 1, 1, 1, 1, 0]>, <72, 22, 35, 13, 4, 0, 1, [0, 1, 1, 1, 1, 0]>, <73, 3, 17, 14, 5, 0, 0, [1, 1, 1, 1, 0, 0]>, <74, 4, 18, 14, 5, 0, 0, [1, 1, 1, 1, 0, 0]>, <75, 5, 19, 14, 5, 0, 0, [1, 1, 1, 1, 0, 0]>, <76, 6, 20, 14, 5, 0, 0, [1, 1, 1, 1, 0, 0]>, <77, 12, 26, 14, 5, 0, 0, [1, 1, 1, 1, 0, 0]>, <78, 13, 27, 14, 5, 0, 0, [1, 1, 1, 1, 0, 0]>, <79, 14, 28, 14, 5, 0, 0, [1, 1, 1, 1, 0, 0]>, <80, 15, 29, 14, 5, 0, 0, [1, 1, 1, 1, 0, 0]>, <81, 17, 31, 14, 5, 0, 0, [1, 1, 1, 1, 0, 0]>, <82, 18, 32, 14, 5, 0, 0, [1, 1, 1, 1, 0, 0]>, <83, 19, 33, 14, 5, 0, 0, [1, 1, 1, 1, 0, 0]>, <84, 20, 34, 14, 5, 0, 0, [1, 1, 1, 1, 0, 0]>, <85, 21, 35, 14, 5, 0, 0, [1, 1, 1, 1, 0, 0]>, <86, 5, 15, 10, 6, 1, 0, [1, 1, 0, 0, 1, 1]>, <87, 6, 16, 10, 6, 1, 0, [1, 1, 0, 0, 1, 1]>, <88, 14, 24, 10, 6, 1, 0, [1, 1, 0, 0, 1, 1]>, <89, 15, 25, 10, 6, 1, 0, [1, 1, 0, 0, 1, 1]>, <90, 21, 31, 10, 6, 1, 0, [1, 1, 0, 0, 1, 1]>, <91, 22, 32, 10, 6, 1, 0, [1, 1, 0, 0, 1, 1]>, <92, 23, 33, 10, 6, 1, 0, [1, 1, 0, 0, 1, 1]>, <93, 24, 34, 10, 6, 1, 0, [1, 1, 0, 0, 1, 1]>, <94, 2, 17, 15, 7, 0, 1, [1, 0, 0, 1, 1, 1]>, <95, 3, 18, 15, 7, 0, 1, [1, 0, 0, 1, 1, 1]>, <96, 4, 19, 15, 7, 0, 1, [1, 0, 0, 1, 1, 1]>, <97, 5, 20, 15, 7, 0, 1, [1, 0, 0, 1, 1, 1]>, <98, 6, 21, 15, 7, 0, 1, [1, 0, 0, 1, 1, 1]>, <99, 11, 26, 15, 7, 0, 1, [1, 0, 0, 1, 1, 1]>, <100, 12, 27, 15, 7, 0, 1, [1, 0, 0, 1, 1, 1]>, <101, 13, 28, 15, 7, 0, 1, [1, 0, 0, 1, 1, 1]>, <102, 14, 29, 15, 7, 0, 1, [1, 0, 0, 1, 1, 1]>, <103, 15, 30, 15, 7, 0, 1, [1, 0, 0, 1, 1, 1]>, <104, 16, 31, 15, 7, 0, 1, [1, 0, 0, 1, 1, 1]>, <105, 17, 32, 15, 7, 0, 1, [1, 0, 0, 1, 1, 1]>, <106, 18, 33, 15, 7, 0, 1, [1, 0, 0, 1, 1, 1]>, <107, 19, 34, 15, 7, 0, 1, [1, 0, 0, 1, 1, 1]>, <108, 20, 35, 15, 7, 0, 1, [1, 0, 0, 1, 1, 1]>, <109, 5, 14, 9, 8, 0, 0, [1, 1, 1, 1, 0, 0]>, <110, 6, 15, 9, 8, 0, 0, [1, 1, 1, 1, 0, 0]>, <111, 14, 23, 9, 8, 0, 0, [1, 1, 1, 1, 0, 0]>, <112, 15, 24, 9, 8, 0, 0, [1, 1, 1, 1, 0, 0]>, <113, 22, 31, 9, 8, 0, 0, [1, 1, 1, 1, 0, 0]>, <114, 23, 32, 9, 8, 0, 0, [1, 1, 1, 1, 0, 0]>, <115, 24, 33, 9, 8, 0, 0, [1, 1, 1, 1, 0, 0]>, <116, 3, 17, 14, 9, 1, 0, [0, 1, 1, 1, 1, 0]>, <117, 4, 18, 14, 9, 1, 0, [0, 1, 1, 1, 1, 0]>, <118, 5, 19, 14, 9, 1, 0, [0, 1, 1, 1, 1, 0]>, <119, 6, 20, 14, 9, 1, 0, [0, 1, 1, 1, 1, 0]>, <120, 12, 26, 14, 9, 1, 0, [0, 1, 1, 1, 1, 0]>, <121, 13, 27, 14, 9, 1, 0, [0, 1, 1, 1, 1, 0]>, <122, 14, 28, 14, 9, 1, 0, [0, 1, 1, 1, 1, 0]>, <123, 15, 29, 14, 9, 1, 0, [0, 1, 1, 1, 1, 0]>, <124, 17, 31, 14, 9, 1, 0, [0, 1, 1, 1, 1, 0]>, <125, 18, 32, 14, 9, 1, 0, [0, 1, 1, 1, 1, 0]>, <126, 19, 33, 14, 9, 1, 0, [0, 1, 1, 1, 1, 0]>, <127, 20, 34, 14, 9, 1, 0, [0, 1, 1, 1, 1, 0]>, <128, 21, 35, 14, 9, 1, 0, [0, 1, 1, 1, 1, 0]>, <129, 5, 15, 10, 10, 1, 0, [0, 1, 1, 1, 1, 0]>, <130, 6, 16, 10, 10, 1, 0, [0, 1, 1, 1, 1, 0]>, <131, 14, 24, 10, 10, 1, 0, [0, 1, 1, 1, 1, 0]>, <132, 15, 25, 10, 10, 1, 0, [0, 1, 1, 1, 1, 0]>, <133, 21, 31, 10, 10, 1, 0, [0, 1, 1, 1, 1, 0]>, <134, 22, 32, 10, 10, 1, 0, [0, 1, 1, 1, 1, 0]>, <135, 23, 33, 10, 10, 1, 0, [0, 1, 1, 1, 1, 0]>, <136, 24, 34, 10, 10, 1, 0, [0, 1, 1, 1, 1, 0]>, <137, 2, 17, 15, 11, 0, 1, [1, 0, 0, 1, 1, 1]>, <138, 3, 18, 15, 11, 0, 1, [1, 0, 0, 1, 1, 1]>, <139, 4, 19, 15, 11, 0, 1, [1, 0, 0, 1, 1, 1]>, <140, 5, 20, 15, 11, 0, 1, [1, 0, 0, 1, 1, 1]>, <141, 6, 21, 15, 11, 0, 1, [1, 0, 0, 1, 1, 1]>, <142, 11, 26, 15, 11, 0, 1, [1, 0, 0, 1, 1, 1]>, <143, 12, 27, 15, 11, 0, 1, [1, 0, 0, 1, 1, 1]>, <144, 13, 28, 15, 11, 0, 1, [1, 0, 0, 1, 1, 1]>, <145, 14, 29, 15, 11, 0, 1, [1, 0, 0, 1, 1, 1]>, <146, 15, 30, 15, 11, 0, 1, [1, 0, 0, 1, 1, 1]>, <147, 16, 31, 15, 11, 0, 1, [1, 0, 0, 1, 1, 1]>, <148, 17, 32, 15, 11, 0, 1, [1, 0, 0, 1, 1, 1]>, <149, 18, 33, 15, 11, 0, 1, [1, 0, 0, 1, 1, 1]>, <150, 19, 34, 15, 11, 0, 1, [1, 0, 0, 1, 1, 1]>, <151, 20, 35, 15, 11, 0, 1, [1, 0, 0, 1, 1, 1]>, <152, 5, 15, 10, 12, 1, 0, [1, 0, 0, 1, 1, 1]>, <153, 6, 16, 10, 12, 1, 0, [1, 0, 0, 1, 1, 1]>, <154, 14, 24, 10, 12, 1, 0, [1, 0, 0, 1, 1, 1]>, <155, 15, 25, 10, 12, 1, 0, [1, 0, 0, 1, 1, 1]>, <156, 21, 31, 10, 12, 1, 0, [1, 0, 0, 1, 1, 1]>, <157, 22, 32, 10, 12, 1, 0, [1, 0, 0, 1, 1, 1]>, <158, 23, 33, 10, 12, 1, 0, [1, 0, 0, 1, 1, 1]>, <159, 24, 34, 10, 12, 1, 0, [1, 0, 0, 1, 1, 1]>, <160, 5, 16, 11, 13, 0, 0, [1, 1, 1, 0, 0, 1]>, <161, 6, 17, 11, 13, 0, 0, [1, 1, 1, 0, 0, 1]>, <162, 14, 25, 11, 13, 0, 0, [1, 1, 1, 0, 0, 1]>, <163, 15, 26, 11, 13, 0, 0, [1, 1, 1, 0, 0, 1]>, <164, 20, 31, 11, 13, 0, 0, [1, 1, 1, 0, 0, 1]>, <165, 21, 32, 11, 13, 0, 0, [1, 1, 1, 0, 0, 1]>, <166, 22, 33, 11, 13, 0, 0, [1, 1, 1, 0, 0, 1]>, <167, 23, 34, 11, 13, 0, 0, [1, 1, 1, 0, 0, 1]>, <168, 24, 35, 11, 13, 0, 0, [1, 1, 1, 0, 0, 1]>, <169, 5, 15, 10, 14, 0, 1, [1, 1, 1, 0, 0, 1]>, <170, 6, 16, 10, 14, 0, 1, [1, 1, 1, 0, 0, 1]>, <171, 14, 24, 10, 14, 0, 1, [1, 1, 1, 0, 0, 1]>, <172, 15, 25, 10, 14, 0, 1, [1, 1, 1, 0, 0, 1]>, <173, 21, 31, 10, 14, 0, 1, [1, 1, 1, 0, 0, 1]>, <174, 22, 32, 10, 14, 0, 1, [1, 1, 1, 0, 0, 1]>, <175, 23, 33, 10, 14, 0, 1, [1, 1, 1, 0, 0, 1]>, <176, 24, 34, 10, 14, 0, 1, [1, 1, 1, 0, 0, 1]>};
